c Random generated cnf formula, satisfiable: false
p cnf 10 50
-6 10 9 0
-4 -3 -10 0
5 -6 -9 0
1 7 -6 0
-2 -5 -1 0
-3 6 2 0
8 -4 -9 0
5 6 -3 0
4 -1 8 0
-7 1 2 0
-5 8 4 0
-1 -7 5 0
-7 -2 -4 0
-1 -6 10 0
5 10 -3 0
4 -2 3 0
-1 -4 3 0
6 8 9 0
-6 -8 -1 0
5 9 4 0
2 -6 -3 0
8 -1 9 0
3 8 9 0
-3 10 -8 0
-2 -8 -9 0
7 1 -10 0
1 -4 -5 0
-3 -5 8 0
-1 3 -7 0
1 2 -4 0
5 3 -7 0
1 6 2 0
5 4 2 0
-1 -3 8 0
-4 -3 -1 0
-2 10 6 0
2 -6 9 0
1 -6 -4 0
-6 2 5 0
5 2 -8 0
-7 -10 4 0
-8 1 10 0
-2 9 -3 0
-10 -7 -3 0
-1 -5 2 0
10 -8 -4 0
-7 2 6 0
-9 7 -3 0
7 -6 8 0
-9 -6 -8 0
